
  17    0


   0   8 2 3 4 5 6 7 15 16 
   8   2 14 8 
   3   2 13 12 
   7   2 11 9 
   1   2 10 8 
   2   1 9 
  10   1 8 
   1   1 17
   3   1 17
   4   1 17
   7   1 17
   8   1 17
   3   1 17
   5   1 17
   3   1 17
   6   1 17
   0   0 
